p cep 20 68
5 9
14 17
1 3
10 11
5 6
15 20
1 17
17 20
8 9
13 17
15 16
1 6
18 19
12 16
7 11
2 5
15 19
1 2
16 17
12 20
4 19
12 13
14 18
8 10
13 16
1 5
9 11
12 17
3 6
7 10
3 16
15 18
13 20
16 18
18 20
2 6
17 19
12 14
4 5
5 17
8 11
13 15
14 19
1 4
4 16
9 10
12 18
2 3
14 15
13 19
14 20
16 19
19 20
3 5
7 8
7 9
12 15
15 17
17 18
4 6
14 16
13 14
12 19
5 20
13 18
16 20
3 4
2 4
